p cnf 240 788
1 2 3 0
4 5 6 0
7 8 9 0
10 11 12 0
13 14 15 0
16 17 18 0
19 20 21 0
22 23 24 0
25 26 27 0
28 29 30 0
31 32 33 0
34 35 36 0
37 38 39 0
40 41 42 0
43 44 45 0
46 47 48 0
49 50 51 0
52 53 54 0
55 56 57 0
58 59 60 0
61 62 63 0
64 65 66 0
67 68 69 0
70 71 72 0
73 74 75 0
76 77 78 0
79 80 81 0
82 83 84 0
85 86 87 0
88 89 90 0
91 92 93 0
94 95 96 0
97 98 99 0
100 101 102 0
103 104 105 0
106 107 108 0
109 110 111 0
112 113 114 0
115 116 117 0
118 119 120 0
121 122 123 0
124 125 126 0
127 128 129 0
130 131 132 0
133 134 135 0
136 137 138 0
139 140 141 0
142 143 144 0
145 146 147 0
148 149 150 0
151 152 153 0
154 155 156 0
157 158 159 0
160 161 162 0
163 164 165 0
166 167 168 0
169 170 171 0
172 173 174 0
175 176 177 0
178 179 180 0
181 182 183 0
184 185 186 0
187 188 189 0
190 191 192 0
193 194 195 0
196 197 198 0
199 200 201 0
202 203 204 0
205 206 207 0
208 209 210 0
211 212 213 0
214 215 216 0
217 218 219 0
220 221 222 0
223 224 225 0
226 227 228 0
229 230 231 0
232 233 234 0
235 236 237 0
238 239 240 0
-1 -2 0
-1 -3 0
-2 -3 0
-4 -5 0
-4 -6 0
-5 -6 0
-7 -8 0
-7 -9 0
-8 -9 0
-10 -11 0
-10 -12 0
-11 -12 0
-13 -14 0
-13 -15 0
-14 -15 0
-16 -17 0
-16 -18 0
-17 -18 0
-19 -20 0
-19 -21 0
-20 -21 0
-22 -23 0
-22 -24 0
-23 -24 0
-25 -26 0
-25 -27 0
-26 -27 0
-28 -29 0
-28 -30 0
-29 -30 0
-31 -32 0
-31 -33 0
-32 -33 0
-34 -35 0
-34 -36 0
-35 -36 0
-37 -38 0
-37 -39 0
-38 -39 0
-40 -41 0
-40 -42 0
-41 -42 0
-43 -44 0
-43 -45 0
-44 -45 0
-46 -47 0
-46 -48 0
-47 -48 0
-49 -50 0
-49 -51 0
-50 -51 0
-52 -53 0
-52 -54 0
-53 -54 0
-55 -56 0
-55 -57 0
-56 -57 0
-58 -59 0
-58 -60 0
-59 -60 0
-61 -62 0
-61 -63 0
-62 -63 0
-64 -65 0
-64 -66 0
-65 -66 0
-67 -68 0
-67 -69 0
-68 -69 0
-70 -71 0
-70 -72 0
-71 -72 0
-73 -74 0
-73 -75 0
-74 -75 0
-76 -77 0
-76 -78 0
-77 -78 0
-79 -80 0
-79 -81 0
-80 -81 0
-82 -83 0
-82 -84 0
-83 -84 0
-85 -86 0
-85 -87 0
-86 -87 0
-88 -89 0
-88 -90 0
-89 -90 0
-91 -92 0
-91 -93 0
-92 -93 0
-94 -95 0
-94 -96 0
-95 -96 0
-97 -98 0
-97 -99 0
-98 -99 0
-100 -101 0
-100 -102 0
-101 -102 0
-103 -104 0
-103 -105 0
-104 -105 0
-106 -107 0
-106 -108 0
-107 -108 0
-109 -110 0
-109 -111 0
-110 -111 0
-112 -113 0
-112 -114 0
-113 -114 0
-115 -116 0
-115 -117 0
-116 -117 0
-118 -119 0
-118 -120 0
-119 -120 0
-121 -122 0
-121 -123 0
-122 -123 0
-124 -125 0
-124 -126 0
-125 -126 0
-127 -128 0
-127 -129 0
-128 -129 0
-130 -131 0
-130 -132 0
-131 -132 0
-133 -134 0
-133 -135 0
-134 -135 0
-136 -137 0
-136 -138 0
-137 -138 0
-139 -140 0
-139 -141 0
-140 -141 0
-142 -143 0
-142 -144 0
-143 -144 0
-145 -146 0
-145 -147 0
-146 -147 0
-148 -149 0
-148 -150 0
-149 -150 0
-151 -152 0
-151 -153 0
-152 -153 0
-154 -155 0
-154 -156 0
-155 -156 0
-157 -158 0
-157 -159 0
-158 -159 0
-160 -161 0
-160 -162 0
-161 -162 0
-163 -164 0
-163 -165 0
-164 -165 0
-166 -167 0
-166 -168 0
-167 -168 0
-169 -170 0
-169 -171 0
-170 -171 0
-172 -173 0
-172 -174 0
-173 -174 0
-175 -176 0
-175 -177 0
-176 -177 0
-178 -179 0
-178 -180 0
-179 -180 0
-181 -182 0
-181 -183 0
-182 -183 0
-184 -185 0
-184 -186 0
-185 -186 0
-187 -188 0
-187 -189 0
-188 -189 0
-190 -191 0
-190 -192 0
-191 -192 0
-193 -194 0
-193 -195 0
-194 -195 0
-196 -197 0
-196 -198 0
-197 -198 0
-199 -200 0
-199 -201 0
-200 -201 0
-202 -203 0
-202 -204 0
-203 -204 0
-205 -206 0
-205 -207 0
-206 -207 0
-208 -209 0
-208 -210 0
-209 -210 0
-211 -212 0
-211 -213 0
-212 -213 0
-214 -215 0
-214 -216 0
-215 -216 0
-217 -218 0
-217 -219 0
-218 -219 0
-220 -221 0
-220 -222 0
-221 -222 0
-223 -224 0
-223 -225 0
-224 -225 0
-226 -227 0
-226 -228 0
-227 -228 0
-229 -230 0
-229 -231 0
-230 -231 0
-232 -233 0
-232 -234 0
-233 -234 0
-235 -236 0
-235 -237 0
-236 -237 0
-238 -239 0
-238 -240 0
-239 -240 0
-1 -22 0
-1 -196 0
-4 -55 0
-4 -160 0
-7 -37 0
-7 -100 0
-10 -100 0
-10 -115 0
-13 -73 0
-13 -97 0
-16 -58 0
-16 -181 0
-19 -109 0
-19 -232 0
-22 -1 0
-22 -34 0
-25 -127 0
-25 -142 0
-28 -46 0
-28 -133 0
-31 -211 0
-34 -22 0
-34 -73 0
-37 -7 0
-37 -109 0
-40 -130 0
-40 -139 0
-43 -157 0
-43 -187 0
-46 -28 0
-46 -217 0
-49 -88 0
-49 -124 0
-52 -94 0
-52 -199 0
-55 -4 0
-55 -166 0
-58 -16 0
-58 -166 0
-61 -160 0
-61 -235 0
-64 -154 0
-64 -181 0
-67 -172 0
-67 -235 0
-70 -127 0
-70 -196 0
-73 -13 0
-73 -34 0
-76 -79 0
-76 -223 0
-79 -76 0
-79 -220 0
-82 -142 0
-82 -169 0
-85 -154 0
-85 -202 0
-88 -49 0
-88 -121 0
-91 -106 0
-91 -199 0
-94 -52 0
-94 -136 0
-97 -13 0
-97 -112 0
-100 -7 0
-100 -10 0
-103 -220 0
-103 -223 0
-106 -91 0
-106 -121 0
-109 -19 0
-109 -37 0
-112 -97 0
-112 -187 0
-115 -10 0
-115 -157 0
-118 -190 0
-118 -229 0
-121 -88 0
-121 -106 0
-124 -49 0
-124 -232 0
-127 -25 0
-127 -70 0
-130 -40 0
-130 -214 0
-133 -28 0
-133 -163 0
-136 -94 0
-136 -193 0
-139 -40 0
-139 -175 0
-142 -25 0
-142 -82 0
-145 -190 0
-145 -226 0
-148 -163 0
-148 -229 0
-151 -175 0
-151 -226 0
-154 -64 0
-154 -85 0
-157 -43 0
-157 -115 0
-160 -4 0
-160 -61 0
-163 -133 0
-163 -148 0
-166 -55 0
-166 -58 0
-169 -82 0
-169 -208 0
-172 -67 0
-172 -214 0
-175 -139 0
-175 -151 0
-178 -202 0
-178 -208 0
-181 -16 0
-181 -64 0
-184 -205 0
-184 -217 0
-187 -43 0
-187 -112 0
-190 -118 0
-190 -145 0
-193 -136 0
-193 -205 0
-196 -1 0
-196 -70 0
-199 -52 0
-199 -91 0
-202 -85 0
-202 -178 0
-205 -184 0
-205 -193 0
-208 -169 0
-208 -178 0
-211 -31 0
-214 -130 0
-214 -172 0
-217 -46 0
-217 -184 0
-220 -79 0
-220 -103 0
-223 -76 0
-223 -103 0
-226 -145 0
-226 -151 0
-229 -118 0
-229 -148 0
-232 -19 0
-232 -124 0
-235 -61 0
-235 -67 0
-2 -23 0
-2 -197 0
-5 -56 0
-5 -161 0
-8 -38 0
-8 -101 0
-11 -101 0
-11 -116 0
-14 -74 0
-14 -98 0
-17 -59 0
-17 -182 0
-20 -110 0
-20 -233 0
-23 -2 0
-23 -35 0
-26 -128 0
-26 -143 0
-29 -47 0
-29 -134 0
-32 -212 0
-35 -23 0
-35 -74 0
-38 -8 0
-38 -110 0
-41 -131 0
-41 -140 0
-44 -158 0
-44 -188 0
-47 -29 0
-47 -218 0
-50 -89 0
-50 -125 0
-53 -95 0
-53 -200 0
-56 -5 0
-56 -167 0
-59 -17 0
-59 -167 0
-62 -161 0
-62 -236 0
-65 -155 0
-65 -182 0
-68 -173 0
-68 -236 0
-71 -128 0
-71 -197 0
-74 -14 0
-74 -35 0
-77 -80 0
-77 -224 0
-80 -77 0
-80 -221 0
-83 -143 0
-83 -170 0
-86 -155 0
-86 -203 0
-89 -50 0
-89 -122 0
-92 -107 0
-92 -200 0
-95 -53 0
-95 -137 0
-98 -14 0
-98 -113 0
-101 -8 0
-101 -11 0
-104 -221 0
-104 -224 0
-107 -92 0
-107 -122 0
-110 -20 0
-110 -38 0
-113 -98 0
-113 -188 0
-116 -11 0
-116 -158 0
-119 -191 0
-119 -230 0
-122 -89 0
-122 -107 0
-125 -50 0
-125 -233 0
-128 -26 0
-128 -71 0
-131 -41 0
-131 -215 0
-134 -29 0
-134 -164 0
-137 -95 0
-137 -194 0
-140 -41 0
-140 -176 0
-143 -26 0
-143 -83 0
-146 -191 0
-146 -227 0
-149 -164 0
-149 -230 0
-152 -176 0
-152 -227 0
-155 -65 0
-155 -86 0
-158 -44 0
-158 -116 0
-161 -5 0
-161 -62 0
-164 -134 0
-164 -149 0
-167 -56 0
-167 -59 0
-170 -83 0
-170 -209 0
-173 -68 0
-173 -215 0
-176 -140 0
-176 -152 0
-179 -203 0
-179 -209 0
-182 -17 0
-182 -65 0
-185 -206 0
-185 -218 0
-188 -44 0
-188 -113 0
-191 -119 0
-191 -146 0
-194 -137 0
-194 -206 0
-197 -2 0
-197 -71 0
-200 -53 0
-200 -92 0
-203 -86 0
-203 -179 0
-206 -185 0
-206 -194 0
-209 -170 0
-209 -179 0
-212 -32 0
-215 -131 0
-215 -173 0
-218 -47 0
-218 -185 0
-221 -80 0
-221 -104 0
-224 -77 0
-224 -104 0
-227 -146 0
-227 -152 0
-230 -119 0
-230 -149 0
-233 -20 0
-233 -125 0
-236 -62 0
-236 -68 0
-3 -24 0
-3 -198 0
-6 -57 0
-6 -162 0
-9 -39 0
-9 -102 0
-12 -102 0
-12 -117 0
-15 -75 0
-15 -99 0
-18 -60 0
-18 -183 0
-21 -111 0
-21 -234 0
-24 -3 0
-24 -36 0
-27 -129 0
-27 -144 0
-30 -48 0
-30 -135 0
-33 -213 0
-36 -24 0
-36 -75 0
-39 -9 0
-39 -111 0
-42 -132 0
-42 -141 0
-45 -159 0
-45 -189 0
-48 -30 0
-48 -219 0
-51 -90 0
-51 -126 0
-54 -96 0
-54 -201 0
-57 -6 0
-57 -168 0
-60 -18 0
-60 -168 0
-63 -162 0
-63 -237 0
-66 -156 0
-66 -183 0
-69 -174 0
-69 -237 0
-72 -129 0
-72 -198 0
-75 -15 0
-75 -36 0
-78 -81 0
-78 -225 0
-81 -78 0
-81 -222 0
-84 -144 0
-84 -171 0
-87 -156 0
-87 -204 0
-90 -51 0
-90 -123 0
-93 -108 0
-93 -201 0
-96 -54 0
-96 -138 0
-99 -15 0
-99 -114 0
-102 -9 0
-102 -12 0
-105 -222 0
-105 -225 0
-108 -93 0
-108 -123 0
-111 -21 0
-111 -39 0
-114 -99 0
-114 -189 0
-117 -12 0
-117 -159 0
-120 -192 0
-120 -231 0
-123 -90 0
-123 -108 0
-126 -51 0
-126 -234 0
-129 -27 0
-129 -72 0
-132 -42 0
-132 -216 0
-135 -30 0
-135 -165 0
-138 -96 0
-138 -195 0
-141 -42 0
-141 -177 0
-144 -27 0
-144 -84 0
-147 -192 0
-147 -228 0
-150 -165 0
-150 -231 0
-153 -177 0
-153 -228 0
-156 -66 0
-156 -87 0
-159 -45 0
-159 -117 0
-162 -6 0
-162 -63 0
-165 -135 0
-165 -150 0
-168 -57 0
-168 -60 0
-171 -84 0
-171 -210 0
-174 -69 0
-174 -216 0
-177 -141 0
-177 -153 0
-180 -204 0
-180 -210 0
-183 -18 0
-183 -66 0
-186 -207 0
-186 -219 0
-189 -45 0
-189 -114 0
-192 -120 0
-192 -147 0
-195 -138 0
-195 -207 0
-198 -3 0
-198 -72 0
-201 -54 0
-201 -93 0
-204 -87 0
-204 -180 0
-207 -186 0
-207 -195 0
-210 -171 0
-210 -180 0
-213 -33 0
-216 -132 0
-216 -174 0
-219 -48 0
-219 -186 0
-222 -81 0
-222 -105 0
-225 -78 0
-225 -105 0
-228 -147 0
-228 -153 0
-231 -120 0
-231 -150 0
-234 -21 0
-234 -126 0
-237 -63 0
-237 -69 0
